Traveling Salesman Problem/TSP_generados/Aleatorio1620390916_8.tsp
NAME: Aleatorio1620390916_8.tsp
COMMENT: Randomly generated scenario
TYPE: TSP
DIMENSION: 8
EDGE_WEIGHT_TYPE: ATT
NODE_COORD_SECTION
1 14.83 25.37
2 48.46 6.41
3 25.59 4.28
4 38.7 4.83
5 19.86 47.18
6 22.02 9.93
7 47.58 24.24
8 36.04 3.8
