Traveling Salesman Problem/TSP_generados/Aleatorio1620390916_8.opt.tour
NAME: Aleatorio1620390916_8.opt.tour
COMMENT: Optimal solution for Aleatorio1620390916_8 (123.13127515378922)
TYPE: TOUR
DIMENSION: 8
TOUR_SECTION
1 5 7 2 4 8 3 6
-1
EOF
